NAME : a280
COMMENT : drilling problem (Ludwig)
TYPE : TSP
DIMENSION: 5
EDGE_WEIGHT_TYPE : EUC_2D
NODE_COORD_SECTION
  1 288 149
  2 288 129
  3 270 133
  4 256 141
  5 256 157
EOF



901 .. 890
091 .. 809

(9,0), (0,1), (8,9), (9,0)

(9,0), (0,1), (8,9)


(0,9), (9,1), (8,0), (0.9)
(0.9), (9,1), (8,0)


012 123
021 213
(0,1), (1,2), (1,2), (2,3)
(0,1), (1,2), (2,3)

(0,2), (2,1), (2,1), (1,3)
(0,2), (2,1), (1,3)

